13153.33 0
0 25 66 49 11 5 103 109 129 51 95 21 126 0
0 117 106 90 78 33 31 136 0
0 62 74 47 92 133 132 32 55 125 0
0 57 72 141 88 9 14 138 75 124 16 110 0
0 118 4 93 115 28 36 20 0
0 30 71 148 67 8 15 42 38 86 40 84 149 26 0
0 119 6 2 7 137 97 69 107 98 0
0 122 101 77 140 80 63 121 104 12 46 44 139 89 81 0
0 123 96 22 127 29 61 0
0 70 85 54 68 17 39 1 87 48 147 24 34 52 58 116 108 45 76 0
0 60 23 64 130 99 79 91 113 94 56 0
0 135 114 100 111 102 105 35 37 59 0
0 65 150 142 73 3 13 144 53 0
0 131 82 19 18 134 50 43 83 120 0
0 128 112 146 10 41 143 145 27 0
